46
66
50
34
90
69
38
55
32
25
29
55
41
58
0
88
41
0
82
36
0
42
65
67
0
70
68
46
34
41
47
47
23
81
59
47
55
29
0
40
25
36
31
55
43
81
83
39
44
30
45
54
56
87
46
67
0
71
0
47
0
121
95
77
62
43
62
34
88
68
19
117
0
62
36
0
0
51
128
41
81
52
52
66
18
38
48
37
44
48
78
31
49
34
32
30
0
47
33
35
